/* Objective function */
max: -2 C3 +5 C5 +47 C7 -16 C9 +22 C13 +37 C15 +11 C16 -22 C17 +22 C19 -6 C22 +111 C23 +289 C25 +172 C26 +16 C28
 +14 C29 +104 C30 -16 C35 -60 C37 +12 C40 +226 C41 +164 C43 +134 C50 +86 C52 +26 C53 +142 C56 +38 C57
 +24 C60 -11 C61 +85 C66 +128 C69 +69 C72 +22 C73 -13 C74 +50 C75 +206 C76 +116 C78 +56 C79 +29 C81 +177 C84
 -47 C85 +37 C86 +90 C87 +27 C90 +331 C95 +72 C99 +227 C105 +11 C107 +42 C108 +97 C109 +55 C110 -23 C112
 +18 C113 +65 C114 +37 C116 -20 C118 +34 C119 -30 C120 +57 C121 +30 C122 +25 C123 +109 C125 +196 C128
 -C130 +50 C135 +102 C136 +13 C137 +30 C141 -15 C143 -6 C148 -4 C149 +146 C152 +352 C156 +87 C159 +52 C161
 +168 C162 -20 C164 -40 C166 +163 C167 +22 C168 +29 C170 +176 C173 +136 C174 +28 C175 -17 C177 +154 C178
 -27 C179 +153 C184 +3 C185 +66 C186 +108 C189 +97 C191 +94 C192 +75 C194 +22 C196 -27 C199 -5 C200 +241 C202
 +8 C206 +25 C207 +18 C209 +113 C211 +17 C216 +160 C218 +115 C220 +98 C221 +62 C222 +115 C224 +179 C227
 +20 C228 +67 C229 +45 C230 +113 C232 +22 C233 +110 C236 +2 C237 -13 C240 +85 C241 +87 C242 +61 C244
 +12 C245 +103 C247 +191 C248 -16 C249 +39 C250 +41 C251 -11 C254 +167 C255 +6 C256 +108 C257 +7 C258
 -10 C260 +92 C262 +83 C263 +110 C264 +354 C267 -C270 -16 C271 +94 C274 +28 C275 +97 C281 -4 C283 +39 C286
 +71 C287 +19 C288 +265 C289 +34 C291 +52 C292 +199 C293 +48 C295 +151 C296 +74 C298 +106 C299 +154 C302
 +78 C307 +185 C308 -37 C309 +126 C311 +298 C313 +75 C314 -5 C317 +92 C318 +242 C321 +44 C322 +21 C323
 +7 C331 +110 C336 +18 C338 +87 C339 +53 C345 +30 C347 +58 C352 +65 C356 -13 C359 +257 C362 +62 C363
 +32 C364 +126 C366 -10 C368 +45 C372 +151 C373 -27 C374 +9 C375 +105 C377 -10 C378 +55 C379 +145 C380
 +68 C383 +91 C385 -45 C389 +25 C390 -4 C391 -8 C392 +181 C393 +31 C394 -8 C396 -53 C397 +22 C398 +164 C400
 +210 C401 +153 C403 -2 C405 +272 C408 +110 C410 +95 C411 +166 C413 +125 C414 +72 C418 +35 C419 +110 C421
 +27 C422 +184 C427 +198 C428 +289 C429 +181 C433 +203 C437 +139 C441 +130 C442 +144 C448 +3 C449 +C453
 +107 C455 +132 C456 +12 C457 -29 C462 -7 C463 +79 C464 +120 C465 +C466 +12 C467 +30 C470 +112 C472 +171 C474
 +141 C475 +326 C477 -18 C484 -24 C485 +35 C486 +53 C488 +88 C489 +124 C491 +91 C494 +122 C498 +160 C499
 +58 C500 +18 C501 -2 C502 +152 C504 +10 C505 +12 C508;

/* Constraints */
+5.5 C1 +7.5 C2 +8.5 C3 +5 C4 +7 C5 +5 C6 +6 C7 +5 C8 +7.5 C9 +5 C10 +7.5 C11 +5.5 C12 +5 C13 +5 C14
 +6 C15 +6 C16 +7.5 C17 +5 C18 +8 C19 +10.5 C20 +6 C21 +6.5 C22 +6.5 C23 +12 C24 +7 C25 +6 C26 +7 C27
 +7.5 C28 +9 C29 +14 C30 +7.5 C31 +5.5 C32 +6 C33 +9 C34 +5.5 C35 +5 C36 +6.5 C37 +7 C38 +8.5 C39 +10 C40
 +12 C41 +6 C42 +12 C43 +5.5 C44 +5 C45 +5.5 C46 +5 C47 +8.5 C48 +7 C49 +6 C50 +5 C51 +9 C52 +8.5 C53
 +6 C54 +6 C55 +7 C56 +6.5 C57 +7.5 C58 +5.5 C59 +6.5 C60 +7.5 C61 +5.5 C62 +6 C63 +6 C64 +5 C65 +10 C66
 +9.5 C67 +5.5 C68 +5.5 C69 +6 C70 +5 C71 +7 C72 +7.5 C73 +7.5 C74 +6.1 C75 +12 C76 +11.5 C77 +7 C78
 +8 C79 +9.5 C80 +7.5 C81 +10 C82 +5 C83 +10 C84 +5.5 C85 +7.5 C86 +5.5 C87 +5.5 C88 +5 C89 +6 C90 +6 C91
 +7 C92 +8.5 C93 +5 C94 +11 C95 +5 C96 +8 C97 +6 C98 +7 C99 +6 C100 +6 C101 +5 C102 +8.5 C103 +5 C104
 +11 C105 +7.5 C106 +6.5 C107 +7 C108 +8 C109 +5.5 C110 +5 C111 +7.5 C112 +6.5 C113 +9.5 C114 +5.5 C115
 +7 C116 +6 C117 +5.5 C118 +6 C119 +7.5 C120 +5.5 C121 +6 C122 +6.5 C123 +5 C124 +7.5 C125 +6 C126 +5 C127
 +7 C128 +5.5 C129 +6.5 C130 +5 C131 +5 C132 +13 C133 +6 C134 +7.5 C135 +7.5 C136 +7 C137 +10 C138 +6 C139
 +6.5 C140 +5.5 C141 +7 C142 +5 C143 +7 C144 +6.5 C145 +6.5 C146 +6 C147 +10.5 C148 +7 C149 +11 C150
 +5 C151 +11 C152 +5 C153 +8 C154 +7.5 C155 +10 C156 +7 C157 +6 C158 +8.5 C159 +7.5 C160 +9.5 C161 +10.5 C162
 +5 C163 +5 C164 +5 C165 +7 C166 +10 C167 +7.5 C168 +10 C169 +8.5 C170 +12 C171 +7.5 C172 +12 C173 +7 C174
 +7.5 C175 +10.5 C176 +8 C177 +7.5 C178 +7.5 C179 +7 C180 +5 C181 +5 C182 +5 C183 +10 C184 +5 C185 +6 C186
 +5 C187 +5 C188 +8.5 C189 +5 C190 +9.5 C191 +5.5 C192 +7.5 C193 +6.5 C194 +5 C195 +8.5 C196 +5 C197
 +8 C198 +5.5 C199 +7.5 C200 +8.5 C201 +8.5 C202 +5 C203 +5.5 C204 +7.5 C205 +5 C206 +6.5 C207 +10 C208
 +8 C209 +7 C210 +7.5 C211 +5 C212 +7 C213 +8.5 C214 +5 C215 +10 C216 +5 C217 +5.5 C218 +7 C219 +13 C220
 +8 C221 +14 C222 +5.5 C223 +5 C224 +6 C225 +5 C226 +8 C227 +6.5 C228 +5 C229 +7.5 C230 +5.5 C231 +8.5 C232
 +5.5 C233 +6.5 C234 +5.5 C235 +8.5 C236 +8.5 C237 +5.5 C238 +6 C239 +7.5 C240 +9.5 C241 +5.5 C242 +5 C243
 +5 C244 +7 C245 +5 C246 +6.5 C247 +7 C248 +6 C249 +7 C250 +8.5 C251 +5 C252 +6 C253 +6 C254 +7.5 C255
 +6.5 C256 +6.5 C257 +11 C258 +9.5 C259 +5 C260 +5 C261 +6.5 C262 +9.5 C263 +7.5 C264 +5 C265 +5 C266
 +11 C267 +5 C268 +5 C269 +5 C270 +5 C271 +5.5 C272 +5 C273 +7.5 C274 +6.5 C275 +5 C276 +5.5 C277 +7 C278
 +5 C279 +7.5 C280 +12.5 C281 +6.5 C282 +6 C283 +6 C284 +6 C285 +9.5 C286 +6 C287 +6.5 C288 +6 C289 +5 C290
 +8 C291 +7 C292 +12 C293 +5.5 C294 +6.5 C295 +12 C296 +6.5 C297 +6.5 C298 +7.5 C299 +5.5 C300 +5 C301
 +5.5 C302 +7.5 C303 +7.5 C304 +5 C305 +5 C306 +8.5 C307 +11 C308 +6 C309 +6 C310 +7 C311 +5 C312 +13 C313
 +8 C314 +5 C315 +5 C316 +8 C317 +5.5 C318 +5 C319 +7 C320 +9.5 C321 +5 C322 +5 C323 +5 C324 +5 C325
 +5.5 C326 +8.5 C327 +11 C328 +6.5 C329 +5 C330 +6.5 C331 +6 C332 +5 C333 +7 C334 +5 C335 +12 C336 +5.5 C337
 +6 C338 +9 C339 +6.5 C340 +5 C341 +6 C342 +5 C343 +10.5 C344 +5 C345 +9.5 C346 +9.5 C347 +5 C348 +5 C349
 +5 C350 +6 C351 +7.5 C352 +5.5 C353 +7.5 C354 +5 C355 +7 C356 +10.5 C357 +5 C358 +10 C359 +5 C360 +5 C361
 +10.5 C362 +6.5 C363 +7 C364 +7 C365 +7 C366 +6 C367 +10.5 C368 +8 C369 +6.5 C370 +5.5 C371 +7.5 C372
 +11 C373 +7 C374 +6 C375 +5 C376 +6 C377 +5 C378 +8 C379 +6.5 C380 +5 C381 +5 C382 +8 C383 +5 C384 +6 C385
 +5 C386 +8 C387 +5.5 C388 +6 C389 +10 C390 +6 C391 +11.5 C392 +11.5 C393 +5 C394 +5 C395 +6 C396 +9.5 C397
 +6.5 C398 +8.5 C399 +8.5 C400 +9.5 C401 +5 C402 +10 C403 +5 C404 +10.5 C405 +11 C406 +5.5 C407 +13.5 C408
 +5.5 C409 +8 C410 +6 C411 +6 C412 +5.5 C413 +12 C414 +7.5 C415 +6.5 C416 +5 C417 +7.5 C418 +7.5 C419
 +6 C420 +10 C421 +7.5 C422 +7.5 C423 +5 C424 +8.5 C425 +7.5 C426 +8.5 C427 +7 C428 +12 C429 +5 C430
 +6 C431 +5.5 C432 +8.5 C433 +7 C434 +5 C435 +5 C436 +9.5 C437 +5 C438 +5.5 C439 +5 C440 +7 C441 +7 C442
 +8 C443 +7.5 C444 +6 C445 +5 C446 +8 C447 +9.5 C448 +5.5 C449 +6 C450 +5 C451 +6.5 C452 +5 C453 +5 C454
 +6 C455 +5.5 C456 +7 C457 +7.5 C458 +5 C459 +5 C460 +6.5 C461 +9 C462 +7 C463 +10 C464 +8.5 C465 +6 C466
 +11 C467 +8 C468 +5 C469 +6 C470 +5.5 C471 +10 C472 +5 C473 +6.5 C474 +5.5 C475 +5.5 C476 +13 C477 +5 C478
 +5 C479 +5.5 C480 +5 C481 +6 C482 +6.5 C483 +7.5 C484 +5.5 C485 +8 C486 +6.5 C487 +5 C488 +8 C489 +6 C490
 +8.5 C491 +7 C492 +5.5 C493 +6.5 C494 +5 C495 +5.5 C496 +5 C497 +10 C498 +11 C499 +5.5 C500 +7.5 C501
 +7 C502 +5 C503 +6.5 C504 +10 C505 +5 C506 +5 C507 +10 C508 +5.5 C509 <= 100;
+C1 +C2 +C3 +C4 +C5 +C6 +C7 +C8 +C9 +C10 +C11 +C12 +C13 +C14 +C15 +C16 +C17 +C18 +C19 +C20 +C21 +C22
 +C23 +C24 +C25 +C26 +C27 +C28 +C29 +C30 +C31 +C32 +C33 +C34 +C35 +C36 +C37 +C38 +C39 +C40 +C41 +C42
 +C43 +C44 +C45 +C46 +C47 +C48 +C49 +C50 +C51 +C52 +C53 +C54 +C55 +C56 +C57 +C58 +C59 +C60 +C61 +C62
 +C63 +C64 +C65 +C66 +C67 +C68 +C69 +C70 +C71 +C72 +C73 +C74 +C75 +C76 +C77 +C78 +C79 +C80 +C81 +C82
 +C83 +C84 +C85 +C86 +C87 +C88 +C89 +C90 +C91 +C92 +C93 +C94 +C95 +C96 +C97 +C98 +C99 +C100 +C101 +C102
 +C103 +C104 +C105 +C106 +C107 +C108 +C109 +C110 +C111 +C112 +C113 +C114 +C115 +C116 +C117 +C118 +C119
 +C120 +C121 +C122 +C123 +C124 +C125 +C126 +C127 +C128 +C129 +C130 +C131 +C132 +C133 +C134 +C135 +C136
 +C137 +C138 +C139 +C140 +C141 +C142 +C143 +C144 +C145 +C146 +C147 +C148 +C149 +C150 +C151 +C152 +C153
 +C154 +C155 +C156 +C157 +C158 +C159 +C160 +C161 +C162 +C163 +C164 +C165 +C166 +C167 +C168 +C169 +C170
 +C171 +C172 +C173 +C174 +C175 +C176 +C177 +C178 +C179 +C180 +C181 +C182 +C183 +C184 +C185 +C186 +C187
 +C188 +C189 +C190 +C191 +C192 +C193 +C194 +C195 +C196 +C197 +C198 +C199 +C200 +C201 +C202 +C203 +C204
 +C205 +C206 +C207 +C208 +C209 +C210 +C211 +C212 +C213 +C214 +C215 +C216 +C217 +C218 +C219 +C220 +C221
 +C222 +C223 +C224 +C225 +C226 +C227 +C228 +C229 +C230 +C231 +C232 +C233 +C234 +C235 +C236 +C237 +C238
 +C239 +C240 +C241 +C242 +C243 +C244 +C245 +C246 +C247 +C248 +C249 +C250 +C251 +C252 +C253 +C254 +C255
 +C256 +C257 +C258 +C259 +C260 +C261 +C262 +C263 +C264 +C265 +C266 +C267 +C268 +C269 +C270 +C271 +C272
 +C273 +C274 +C275 +C276 +C277 +C278 +C279 +C280 +C281 +C282 +C283 +C284 +C285 +C286 +C287 +C288 +C289
 +C290 +C291 +C292 +C293 +C294 +C295 +C296 +C297 +C298 +C299 +C300 +C301 +C302 +C303 +C304 +C305 +C306
 +C307 +C308 +C309 +C310 +C311 +C312 +C313 +C314 +C315 +C316 +C317 +C318 +C319 +C320 +C321 +C322 +C323
 +C324 +C325 +C326 +C327 +C328 +C329 +C330 +C331 +C332 +C333 +C334 +C335 +C336 +C337 +C338 +C339 +C340
 +C341 +C342 +C343 +C344 +C345 +C346 +C347 +C348 +C349 +C350 +C351 +C352 +C353 +C354 +C355 +C356 +C357
 +C358 +C359 +C360 +C361 +C362 +C363 +C364 +C365 +C366 +C367 +C368 +C369 +C370 +C371 +C372 +C373 +C374
 +C375 +C376 +C377 +C378 +C379 +C380 +C381 +C382 +C383 +C384 +C385 +C386 +C387 +C388 +C389 +C390 +C391
 +C392 +C393 +C394 +C395 +C396 +C397 +C398 +C399 +C400 +C401 +C402 +C403 +C404 +C405 +C406 +C407 +C408
 +C409 +C410 +C411 +C412 +C413 +C414 +C415 +C416 +C417 +C418 +C419 +C420 +C421 +C422 +C423 +C424 +C425
 +C426 +C427 +C428 +C429 +C430 +C431 +C432 +C433 +C434 +C435 +C436 +C437 +C438 +C439 +C440 +C441 +C442
 +C443 +C444 +C445 +C446 +C447 +C448 +C449 +C450 +C451 +C452 +C453 +C454 +C455 +C456 +C457 +C458 +C459
 +C460 +C461 +C462 +C463 +C464 +C465 +C466 +C467 +C468 +C469 +C470 +C471 +C472 +C473 +C474 +C475 +C476
 +C477 +C478 +C479 +C480 +C481 +C482 +C483 +C484 +C485 +C486 +C487 +C488 +C489 +C490 +C491 +C492 +C493
 +C494 +C495 +C496 +C497 +C498 +C499 +C500 +C501 +C502 +C503 +C504 +C505 +C506 +C507 +C508 +C509 = 11;
+4 C1 +4 C2 +2 C3 +4 C4 +4 C5 +8 C6 +8 C7 +4 C8 +2 C9 +4 C10 +4 C11 +C12 +4 C13 +4 C14 +4 C15 +4 C16
 +8 C17 +4 C18 +2 C19 +2 C20 +C21 +4 C22 +8 C23 +8 C24 +8 C25 +4 C26 +2 C27 +2 C28 +8 C29 +4 C30 +2 C31
 +8 C32 +4 C33 +4 C34 +8 C35 +C36 +2 C37 +8 C38 +2 C39 +8 C40 +4 C41 +8 C42 +8 C43 +8 C44 +2 C45 +2 C46
 +4 C47 +2 C48 +8 C49 +2 C50 +8 C51 +C52 +2 C53 +4 C54 +2 C55 +8 C56 +4 C57 +2 C58 +4 C59 +2 C60 +4 C61
 +4 C62 +4 C63 +C64 +2 C65 +4 C66 +2 C67 +4 C68 +C69 +4 C70 +C71 +2 C72 +2 C73 +2 C74 +2 C75 +2 C76 +2 C77
 +2 C78 +4 C79 +C80 +2 C81 +4 C82 +2 C83 +4 C84 +2 C85 +8 C86 +2 C87 +4 C88 +2 C89 +4 C90 +C91 +4 C92
 +2 C93 +C94 +4 C95 +4 C96 +2 C97 +2 C98 +8 C99 +2 C100 +C101 +C102 +2 C103 +8 C104 +8 C105 +2 C106 +2 C107
 +8 C108 +4 C109 +4 C110 +4 C111 +2 C112 +4 C113 +8 C114 +2 C115 +4 C116 +C117 +4 C118 +2 C119 +2 C120
 +4 C121 +4 C122 +2 C123 +4 C124 +8 C125 +4 C126 +2 C127 +2 C128 +4 C129 +8 C130 +8 C131 +4 C132 +4 C133
 +4 C134 +2 C135 +2 C136 +C137 +4 C138 +2 C139 +4 C140 +8 C141 +2 C142 +4 C143 +4 C144 +2 C145 +2 C146
 +4 C147 +4 C148 +4 C149 +2 C150 +C151 +4 C152 +4 C153 +4 C154 +C155 +4 C156 +4 C157 +2 C158 +8 C159
 +2 C160 +8 C161 +4 C162 +4 C163 +4 C164 +C165 +8 C166 +4 C167 +4 C168 +4 C169 +4 C170 +2 C171 +4 C172
 +2 C173 +4 C174 +2 C175 +2 C176 +2 C177 +4 C178 +8 C179 +C180 +2 C181 +4 C182 +4 C183 +4 C184 +4 C185
 +4 C186 +C187 +4 C188 +4 C189 +4 C190 +2 C191 +4 C192 +4 C193 +2 C194 +8 C195 +2 C196 +4 C197 +4 C198
 +4 C199 +4 C200 +2 C201 +2 C202 +4 C203 +8 C204 +2 C205 +4 C206 +4 C207 +8 C208 +4 C209 +2 C210 +2 C211
 +2 C212 +2 C213 +2 C214 +2 C215 +2 C216 +4 C217 +4 C218 +2 C219 +4 C220 +C221 +4 C222 +4 C223 +2 C224
 +4 C225 +4 C226 +8 C227 +4 C228 +8 C229 +8 C230 +4 C231 +2 C232 +2 C233 +2 C234 +4 C235 +4 C236 +8 C237
 +4 C238 +4 C239 +2 C240 +4 C241 +4 C242 +2 C243 +2 C244 +8 C245 +4 C246 +4 C247 +8 C248 +4 C249 +C250
 +C251 +2 C252 +4 C253 +4 C254 +2 C255 +4 C256 +4 C257 +4 C258 +4 C259 +8 C260 +2 C261 +2 C262 +2 C263
 +4 C264 +4 C265 +4 C266 +2 C267 +2 C268 +4 C269 +4 C270 +4 C271 +8 C272 +4 C273 +8 C274 +4 C275 +4 C276
 +2 C277 +4 C278 +C279 +2 C280 +4 C281 +4 C282 +8 C283 +C284 +C285 +4 C286 +8 C287 +4 C288 +4 C289 +4 C290
 +C291 +4 C292 +2 C293 +4 C294 +4 C295 +8 C296 +C297 +8 C298 +4 C299 +4 C300 +8 C301 +2 C302 +2 C303
 +4 C304 +2 C305 +4 C306 +2 C307 +C308 +2 C309 +2 C310 +2 C311 +4 C312 +4 C313 +4 C314 +4 C315 +8 C316
 +4 C317 +8 C318 +2 C319 +2 C320 +2 C321 +4 C322 +4 C323 +4 C324 +2 C325 +2 C326 +4 C327 +2 C328 +2 C329
 +2 C330 +8 C331 +4 C332 +4 C333 +4 C334 +C335 +2 C336 +4 C337 +8 C338 +2 C339 +2 C340 +C341 +4 C342
 +2 C343 +4 C344 +4 C345 +2 C346 +2 C347 +2 C348 +4 C349 +2 C350 +4 C351 +C352 +2 C353 +2 C354 +C355
 +2 C356 +2 C357 +C358 +2 C359 +4 C360 +8 C361 +8 C362 +4 C363 +2 C364 +4 C365 +4 C366 +2 C367 +4 C368
 +4 C369 +8 C370 +4 C371 +2 C372 +4 C373 +8 C374 +2 C375 +4 C376 +4 C377 +4 C378 +2 C379 +2 C380 +4 C381
 +C382 +4 C383 +4 C384 +4 C385 +2 C386 +4 C387 +C388 +C389 +2 C390 +C391 +8 C392 +2 C393 +2 C394 +2 C395
 +8 C396 +8 C397 +2 C398 +2 C399 +C400 +C401 +2 C402 +2 C403 +C404 +2 C405 +2 C406 +4 C407 +8 C408 +2 C409
 +4 C410 +4 C411 +4 C412 +C413 +2 C414 +C415 +C416 +C417 +C418 +4 C419 +8 C420 +2 C421 +4 C422 +2 C423
 +4 C424 +2 C425 +2 C426 +4 C427 +8 C428 +8 C429 +4 C430 +2 C431 +8 C432 +2 C433 +8 C434 +4 C435 +8 C436
 +2 C437 +8 C438 +4 C439 +C440 +4 C441 +2 C442 +4 C443 +4 C444 +8 C445 +2 C446 +4 C447 +2 C448 +8 C449
 +2 C450 +8 C451 +C452 +8 C453 +4 C454 +8 C455 +4 C456 +2 C457 +2 C458 +4 C459 +4 C460 +4 C461 +2 C462
 +4 C463 +4 C464 +C465 +4 C466 +2 C467 +2 C468 +2 C469 +4 C470 +C471 +2 C472 +C473 +C474 +2 C475 +8 C476
 +8 C477 +4 C478 +8 C479 +4 C480 +2 C481 +C482 +C483 +4 C484 +8 C485 +4 C486 +8 C487 +2 C488 +4 C489
 +8 C490 +4 C491 +8 C492 +2 C493 +4 C494 +8 C495 +4 C496 +2 C497 +2 C498 +4 C499 +4 C500 +4 C501 +8 C502
 +C503 +8 C504 +C505 +4 C506 +C507 +4 C508 +4 C509 = 45;

/* Variable bounds */
C1 <= 1;
C2 <= 1;
C3 <= 1;
C4 <= 1;
C5 <= 1;
C6 <= 1;
C7 <= 1;
C8 <= 1;
C9 <= 1;
C10 <= 1;
C11 <= 1;
C12 <= 1;
C13 <= 1;
C14 <= 1;
C15 <= 1;
C16 <= 1;
C17 <= 1;
C18 <= 1;
C19 <= 1;
C20 <= 1;
C21 <= 1;
C22 <= 1;
C23 <= 1;
C24 <= 1;
C25 <= 1;
C26 <= 1;
C27 <= 1;
C28 <= 1;
C29 <= 1;
C30 <= 1;
C31 <= 1;
C32 <= 1;
C33 <= 1;
C34 <= 1;
C35 <= 1;
C36 <= 1;
C37 <= 1;
C38 <= 1;
C39 <= 1;
C40 <= 1;
C41 <= 1;
C42 <= 1;
C43 <= 1;
C44 <= 1;
C45 <= 1;
C46 <= 1;
C47 <= 1;
C48 <= 1;
C49 <= 1;
C50 <= 1;
C51 <= 1;
C52 <= 1;
C53 <= 1;
C54 <= 1;
C55 <= 1;
C56 <= 1;
C57 <= 1;
C58 <= 1;
C59 <= 1;
C60 <= 1;
C61 <= 1;
C62 <= 1;
C63 <= 1;
C64 <= 1;
C65 <= 1;
C66 <= 1;
C67 <= 1;
C68 <= 1;
C69 <= 1;
C70 <= 1;
C71 <= 1;
C72 <= 1;
C73 <= 1;
C74 <= 1;
C75 <= 1;
C76 <= 1;
C77 <= 1;
C78 <= 1;
C79 <= 1;
C80 <= 1;
C81 <= 1;
C82 <= 1;
C83 <= 1;
C84 <= 1;
C85 <= 1;
C86 <= 1;
C87 <= 1;
C88 <= 1;
C89 <= 1;
C90 <= 1;
C91 <= 1;
C92 <= 1;
C93 <= 1;
C94 <= 1;
C95 <= 1;
C96 <= 1;
C97 <= 1;
C98 <= 1;
C99 <= 1;
C100 <= 1;
C101 <= 1;
C102 <= 1;
C103 <= 1;
C104 <= 1;
C105 <= 1;
C106 <= 1;
C107 <= 1;
C108 <= 1;
C109 <= 1;
C110 <= 1;
C111 <= 1;
C112 <= 1;
C113 <= 1;
C114 <= 1;
C115 <= 1;
C116 <= 1;
C117 <= 1;
C118 <= 1;
C119 <= 1;
C120 <= 1;
C121 <= 1;
C122 <= 1;
C123 <= 1;
C124 <= 1;
C125 <= 1;
C126 <= 1;
C127 <= 1;
C128 <= 1;
C129 <= 1;
C130 <= 1;
C131 <= 1;
C132 <= 1;
C133 <= 1;
C134 <= 1;
C135 <= 1;
C136 <= 1;
C137 <= 1;
C138 <= 1;
C139 <= 1;
C140 <= 1;
C141 <= 1;
C142 <= 1;
C143 <= 1;
C144 <= 1;
C145 <= 1;
C146 <= 1;
C147 <= 1;
C148 <= 1;
C149 <= 1;
C150 <= 1;
C151 <= 1;
C152 <= 1;
C153 <= 1;
C154 <= 1;
C155 <= 1;
C156 <= 1;
C157 <= 1;
C158 <= 1;
C159 <= 1;
C160 <= 1;
C161 <= 1;
C162 <= 1;
C163 <= 1;
C164 <= 1;
C165 <= 1;
C166 <= 1;
C167 <= 1;
C168 <= 1;
C169 <= 1;
C170 <= 1;
C171 <= 1;
C172 <= 1;
C173 <= 1;
C174 <= 1;
C175 <= 1;
C176 <= 1;
C177 <= 1;
C178 <= 1;
C179 <= 1;
C180 <= 1;
C181 <= 1;
C182 <= 1;
C183 <= 1;
C184 <= 1;
C185 <= 1;
C186 <= 1;
C187 <= 1;
C188 <= 1;
C189 <= 1;
C190 <= 1;
C191 <= 1;
C192 <= 1;
C193 <= 1;
C194 <= 1;
C195 <= 1;
C196 <= 1;
C197 <= 1;
C198 <= 1;
C199 <= 1;
C200 <= 1;
C201 <= 1;
C202 <= 1;
C203 <= 1;
C204 <= 1;
C205 <= 1;
C206 <= 1;
C207 <= 1;
C208 <= 1;
C209 <= 1;
C210 <= 1;
C211 <= 1;
C212 <= 1;
C213 <= 1;
C214 <= 1;
C215 <= 1;
C216 <= 1;
C217 <= 1;
C218 <= 1;
C219 <= 1;
C220 <= 1;
C221 <= 1;
C222 <= 1;
C223 <= 1;
C224 <= 1;
C225 <= 1;
C226 <= 1;
C227 <= 1;
C228 <= 1;
C229 <= 1;
C230 <= 1;
C231 <= 1;
C232 <= 1;
C233 <= 1;
C234 <= 1;
C235 <= 1;
C236 <= 1;
C237 <= 1;
C238 <= 1;
C239 <= 1;
C240 <= 1;
C241 <= 1;
C242 <= 1;
C243 <= 1;
C244 <= 1;
C245 <= 1;
C246 <= 1;
C247 <= 1;
C248 <= 1;
C249 <= 1;
C250 <= 1;
C251 <= 1;
C252 <= 1;
C253 <= 1;
C254 <= 1;
C255 <= 1;
C256 <= 1;
C257 <= 1;
C258 <= 1;
C259 <= 1;
C260 <= 1;
C261 <= 1;
C262 <= 1;
C263 <= 1;
C264 <= 1;
C265 <= 1;
C266 <= 1;
C267 <= 1;
C268 <= 1;
C269 <= 1;
C270 <= 1;
C271 <= 1;
C272 <= 1;
C273 <= 1;
C274 <= 1;
C275 <= 1;
C276 <= 1;
C277 <= 1;
C278 <= 1;
C279 <= 1;
C280 <= 1;
C281 <= 1;
C282 <= 1;
C283 <= 1;
C284 <= 1;
C285 <= 1;
C286 <= 1;
C287 <= 1;
C288 <= 1;
C289 <= 1;
C290 <= 1;
C291 <= 1;
C292 <= 1;
C293 <= 1;
C294 <= 1;
C295 <= 1;
C296 <= 1;
C297 <= 1;
C298 <= 1;
C299 <= 1;
C300 <= 1;
C301 <= 1;
C302 <= 1;
C303 <= 1;
C304 <= 1;
C305 <= 1;
C306 <= 1;
C307 <= 1;
C308 <= 1;
C309 <= 1;
C310 <= 1;
C311 <= 1;
C312 <= 1;
C313 <= 1;
C314 <= 1;
C315 <= 1;
C316 <= 1;
C317 <= 1;
C318 <= 1;
C319 <= 1;
C320 <= 1;
C321 <= 1;
C322 <= 1;
C323 <= 1;
C324 <= 1;
C325 <= 1;
C326 <= 1;
C327 <= 1;
C328 <= 1;
C329 <= 1;
C330 <= 1;
C331 <= 1;
C332 <= 1;
C333 <= 1;
C334 <= 1;
C335 <= 1;
C336 <= 1;
C337 <= 1;
C338 <= 1;
C339 <= 1;
C340 <= 1;
C341 <= 1;
C342 <= 1;
C343 <= 1;
C344 <= 1;
C345 <= 1;
C346 <= 1;
C347 <= 1;
C348 <= 1;
C349 <= 1;
C350 <= 1;
C351 <= 1;
C352 <= 1;
C353 <= 1;
C354 <= 1;
C355 <= 1;
C356 <= 1;
C357 <= 1;
C358 <= 1;
C359 <= 1;
C360 <= 1;
C361 <= 1;
C362 <= 1;
C363 <= 1;
C364 <= 1;
C365 <= 1;
C366 <= 1;
C367 <= 1;
C368 <= 1;
C369 <= 1;
C370 <= 1;
C371 <= 1;
C372 <= 1;
C373 <= 1;
C374 <= 1;
C375 <= 1;
C376 <= 1;
C377 <= 1;
C378 <= 1;
C379 <= 1;
C380 <= 1;
C381 <= 1;
C382 <= 1;
C383 <= 1;
C384 <= 1;
C385 <= 1;
C386 <= 1;
C387 <= 1;
C388 <= 1;
C389 <= 1;
C390 <= 1;
C391 <= 1;
C392 <= 1;
C393 <= 1;
C394 <= 1;
C395 <= 1;
C396 <= 1;
C397 <= 1;
C398 <= 1;
C399 <= 1;
C400 <= 1;
C401 <= 1;
C402 <= 1;
C403 <= 1;
C404 <= 1;
C405 <= 1;
C406 <= 1;
C407 <= 1;
C408 <= 1;
C409 <= 1;
C410 <= 1;
C411 <= 1;
C412 <= 1;
C413 <= 1;
C414 <= 1;
C415 <= 1;
C416 <= 1;
C417 <= 1;
C418 <= 1;
C419 <= 1;
C420 <= 1;
C421 <= 1;
C422 <= 1;
C423 <= 1;
C424 <= 1;
C425 <= 1;
C426 <= 1;
C427 <= 1;
C428 <= 1;
C429 <= 1;
C430 <= 1;
C431 <= 1;
C432 <= 1;
C433 <= 1;
C434 <= 1;
C435 <= 1;
C436 <= 1;
C437 <= 1;
C438 <= 1;
C439 <= 1;
C440 <= 1;
C441 <= 1;
C442 <= 1;
C443 <= 1;
C444 <= 1;
C445 <= 1;
C446 <= 1;
C447 <= 1;
C448 <= 1;
C449 <= 1;
C450 <= 1;
C451 <= 1;
C452 <= 1;
C453 <= 1;
C454 <= 1;
C455 <= 1;
C456 <= 1;
C457 <= 1;
C458 <= 1;
C459 <= 1;
C460 <= 1;
C461 <= 1;
C462 <= 1;
C463 <= 1;
C464 <= 1;
C465 <= 1;
C466 <= 1;
C467 <= 1;
C468 <= 1;
C469 <= 1;
C470 <= 1;
C471 <= 1;
C472 <= 1;
C473 <= 1;
C474 <= 1;
C475 <= 1;
C476 <= 1;
C477 <= 1;
C478 <= 1;
C479 <= 1;
C480 <= 1;
C481 <= 1;
C482 <= 1;
C483 <= 1;
C484 <= 1;
C485 <= 1;
C486 <= 1;
C487 <= 1;
C488 <= 1;
C489 <= 1;
C490 <= 1;
C491 <= 1;
C492 <= 1;
C493 <= 1;
C494 <= 1;
C495 <= 1;
C496 <= 1;
C497 <= 1;
C498 <= 1;
C499 <= 1;
C500 <= 1;
C501 <= 1;
C502 <= 1;
C503 <= 1;
C504 <= 1;
C505 <= 1;
C506 <= 1;
C507 <= 1;
C508 <= 1;
C509 <= 1;

/* Integer definitions */
int C1,C2,C3,C4,C5,C6,C7,C8,C9,C10,C11,C12,C13,C14,C15,C16,C17,C18,C19,C20,C21,C22,C23,C24,C25,C26,C27,C28,C29,C30,C31,C32,C33,C34,C35,C36,C37,C38,C39,C40,C41,C42,C43,C44,C45,C46,C47,C48,C49,C50,C51,C52,C53,C54,C55,C56,C57,C58,C59,C60,C61,C62,C63,C64,C65,C66,C67,C68,C69,C70,C71,C72,C73,C74,C75,C76,C77,C78,C79,C80,C81,C82,C83,C84,C85,C86,C87,C88,C89,C90,C91,C92,C93,C94,C95,C96,C97,C98,C99,C100,C101,C102,C103,C104,C105,C106,C107,C108,C109,C110,C111,C112,C113,C114,C115,C116,C117,C118,C119,C120,C121,C122,C123,C124,C125,C126,C127,C128,C129,C130,C131,C132,C133,C134,C135,C136,C137,C138,C139,C140,C141,C142,C143,C144,C145,C146,C147,C148,C149,C150,C151,C152,C153,C154,C155,C156,C157,C158,C159,C160,C161,C162,C163,C164,C165,C166,C167,C168,C169,C170,C171,C172,C173,C174,C175,C176,C177,C178,C179,C180,C181,C182,C183,C184,C185,C186,C187,C188,C189,C190,C191,C192,C193,C194,C195,C196,C197,C198,C199,C200,C201,C202,C203,C204,C205,C206,C207,C208,C209,C210,C211,C212,C213,C214,C215,C216,C217,C218,C219,C220,C221,C222,C223,C224,C225,C226,C227,C228,C229,C230,C231,C232,C233,C234,C235,C236,C237,C238,C239,C240,C241,C242,C243,C244,C245,C246,C247,C248,C249,C250,C251,C252,C253,C254,C255,C256,C257,C258,C259,C260,C261,C262,C263,C264,C265,C266,C267,C268,C269,C270,C271,C272,C273,C274,C275,C276,C277,C278,C279,C280,C281,C282,C283,C284,C285,C286,C287,C288,C289,C290,C291,C292,C293,C294,C295,C296,C297,C298,C299,C300,C301,C302,C303,C304,C305,C306,C307,C308,C309,C310,C311,C312,C313,C314,C315,C316,C317,C318,C319,C320,C321,C322,C323,C324,C325,C326,C327,C328,C329,C330,C331,C332,C333,C334,C335,C336,C337,C338,C339,C340,C341,C342,C343,C344,C345,C346,C347,C348,C349,C350,C351,C352,C353,C354,C355,C356,C357,C358,C359,C360,C361,C362,C363,C364,C365,C366,C367,C368,C369,C370,C371,C372,C373,C374,C375,C376,C377,C378,C379,C380,C381,C382,C383,C384,C385,C386,C387,C388,C389,C390,C391,C392,C393,C394,C395,C396,C397,C398,C399,C400,C401,C402,C403,C404,C405,C406,C407,C408,C409,C410,C411,C412,C413,C414,C415,C416,C417,C418,C419,C420,C421,C422,C423,C424,C425,C426,C427,C428,C429,C430,C431,C432,C433,C434,C435,C436,C437,C438,C439,C440,C441,C442,C443,C444,C445,C446,C447,C448,C449,C450,C451,C452,C453,C454,C455,C456,C457,C458,C459,C460,C461,C462,C463,C464,C465,C466,C467,C468,C469,C470,C471,C472,C473,C474,C475,C476,C477,C478,C479,C480,C481,C482,C483,C484,C485,C486,C487,C488,C489,C490,C491,C492,C493,C494,C495,C496,C497,C498,C499,C500,C501,C502,C503,C504,C505,C506,C507,C508,C509;
